
  12    4
  10   10   10   10

   0   0   0   0   0   2 2 3 
   8  10  10  10  10   2 5 4 
   7  10  10  10  10   2 6 5 
   1  10  10  10  10   3 11 8 6 
   2  10  10  10  10   4 11 10 8 7 
   2  10  10  10  10   2 10 7 
   6  10  10  10  10   1 9 
   5  10  10  10  10   1 9 
   6  10  10  10  10   1 12
   8  10  10  10  10   1 12
   4  10  10  10  10   1 12
   0   0   0   0   0   0 
